************************************************************************
file with basedata            : md340_.bas
initial value random generator: 448557781
************************************************************************
projects                      :  1
jobs (incl. supersource/sink ):  22
horizon                       :  147
RESOURCES
  - renewable                 :  2   R
  - nonrenewable              :  2   N
  - doubly constrained        :  0   D
************************************************************************
PROJECT INFORMATION:
pronr.  #jobs rel.date duedate tardcost  MPM-Time
    1     20      0       17       12       17
************************************************************************
PRECEDENCE RELATIONS:
jobnr.    #modes  #successors   successors
   1        1          3           2   3   4
   2        3          3          13  15  16
   3        3          3           5   6   7
   4        3          3          14  17  19
   5        3          2          13  14
   6        3          2          12  17
   7        3          3           8   9  20
   8        3          2          12  14
   9        3          1          10
  10        3          3          11  15  16
  11        3          2          12  18
  12        3          1          19
  13        3          1          20
  14        3          2          15  18
  15        3          1          21
  16        3          2          19  21
  17        3          2          18  20
  18        3          1          21
  19        3          1          22
  20        3          1          22
  21        3          1          22
  22        1          0        
************************************************************************
REQUESTS/DURATIONS:
jobnr. mode duration  R 1  R 2  N 1  N 2
------------------------------------------------------------------------
  1      1     0       0    0    0    0
  2      1     4       0    6    7    0
         2     5       0    4    4    0
         3    10       8    0    0    5
  3      1     2       0    4    0    8
         2     3       5    0    0    7
         3     8       0    3    8    0
  4      1     4       0    4    0   10
         2     4       7    0    0    9
         3     5       6    0    0    8
  5      1     4       0    7    5    0
         2     8       0    6    0    7
         3    10       3    0    5    0
  6      1     3       9    0    4    0
         2     5       7    0    4    0
         3     8       0    7    0    2
  7      1     2       0    6    8    0
         2     5       9    0    7    0
         3     7       7    0    0    8
  8      1     4       5    0    7    0
         2     5       0    4    3    0
         3    10       3    0    0    8
  9      1     2       3    0    4    0
         2     2       4    0    0    9
         3     2       6    0    2    0
 10      1     2       5    0    4    0
         2     4       4    0    0    5
         3     5       2    0    1    0
 11      1     2       2    0    0    3
         2     4       0    8    0    2
         3     7       2    0    6    0
 12      1     5       6    0    0    9
         2     6       0    8    0    9
         3     8       0    5   10    0
 13      1     3       0    9    6    0
         2     4       5    0    0    4
         3     5       0    4    0    4
 14      1     4       0    4    7    0
         2     8       9    0    0    7
         3    10       7    0    2    0
 15      1     2       7    0    0    8
         2     4       5    0    8    0
         3     7       0    8    0    7
 16      1     2       6    0    0    8
         2     5       0    8    5    0
         3     7       3    0    0    7
 17      1     6       7    0    7    0
         2     9       7    0    0    4
         3    10       0    3    5    0
 18      1     1       0    3   10    0
         2     5       5    0    6    0
         3     6       0    3    2    0
 19      1     1      10    0    0    6
         2     6       0    6   10    0
         3     7       5    0    0    4
 20      1     3       0    3    4    0
         2     5       4    0    2    0
         3     7       0    3    0    5
 21      1     3       0    8    0    7
         2     6       8    0    0    6
         3     8       4    0    7    0
 22      1     0       0    0    0    0
************************************************************************
RESOURCEAVAILABILITIES:
  R 1  R 2  N 1  N 2
   36   36   96   94
************************************************************************
MAXIMAL LAGS:
from  to  type  delay
    1   12   ES      0
    1    2   ES      0
    2   12   ES      0
    1    3   ES      0
    3   12   ES      0
    1    4   ES      0
    4   12   ES      0
    1    5   ES      0
    5   12   ES      0
    1    6   ES      0
    6   12   ES      0
    1    7   ES      0
    7   12   ES      0
    1    8   ES      0
    8   12   ES      0
    1    9   ES      0
    9   12   ES      0
    1   10   ES      0
   10   12   ES      0
    1   11   ES      0
   11   12   ES      0
    1   12   ES      0
    2   13   SS      9
    2   13   SE     -3
    2   13   ES     -5
    2   13   EE      4
    2   15   SS      4
    2   15   SE     -7
    2   15   ES     12
    2   15   EE     -8
    2   16   SS     12
    2   16   SE     -9
    2   16   ES     -9
    2   16   EE     -3
    3    5   SS     11
    3    5   SE     -2
    3    5   ES      2
    3    5   EE      3
    3    6   SS     11
    3    6   SE     -1
    3    6   ES      5
    3    6   EE     -4
    3    7   SS      9
    3    7   SE      3
    3    7   ES     -4
    3    7   EE     -1
    4   14   SS      2
    4   14   SE    -12
    4   14   ES     -1
    4   14   EE     -3
    4   17   SS     10
    4   17   SE     -2
    4   17   ES      4
    4   17   EE     12
    4   19   SS      9
    4   19   SE      7
    4   19   ES      3
    4   19   EE     -9
    5   13   SS     -4
    5   13   SE      9
    5   13   ES      4
    5   13   EE     11
    5   14   SS      8
    5   14   SE    -12
    5   14   ES     -8
    5   14   EE      1
    6   17   SS     -5
    6   17   SE      9
    6   17   ES     -8
    6   17   EE     -1
    7    8   SS      3
    7    8   SE    -12
    7    8   ES     -5
    7    8   EE      6
    7    9   SS     11
    7    9   SE     10
    7    9   ES      1
    7    9   EE     -1
    7   20   SS     -6
    7   20   SE     11
    7   20   ES    -10
    7   20   EE     -6
    8   14   SS      0
    8   14   SE      8
    8   14   ES     -9
    8   14   EE     -4
    9   10   SS      8
    9   10   SE      9
    9   10   ES      5
    9   10   EE      2
   10   11   SS      4
   10   11   SE     -7
   10   11   ES     -4
   10   11   EE      9
   10   15   SS     -1
   10   15   SE     -2
   15   10   SE      0
   10   15   ES      0
   10   15   EE      6
   10   16   SS      1
   10   16   SE     -4
   10   16   ES     -3
   10   16   EE     -6
   11   18   SS    -11
   11   18   SE      6
   11   18   ES      4
   11   18   EE     10
   12   19   SS     -2
   12   19   SE      7
   12   19   ES     -9
   12   19   EE      1
   13   20   SS      2
   13   20   SE      6
   13   20   ES     -1
   13   20   EE     -3
   14   15   SS     -9
   14   15   SE    -12
   14   15   ES      3
   14   15   EE      9
   14   18   SS     -8
   14   18   SE      2
   14   18   ES      9
   14   18   EE     -8
   15   21   SS      4
   15   21   SE     -3
   15   21   ES      7
   15   21   EE      5
   16   19   SS      9
   16   19   SE     -7
   16   19   ES     -3
   16   19   EE      3
   16   21   SS     -3
   16   21   SE    -10
   16   21   ES     -3
   16   21   EE    -12
   17   18   SS      2
   17   18   SE    -11
   17   18   ES     -6
   17   18   EE     -3
   17   20   SS      6
   17   20   SE     -9
   17   20   ES    -11
   17   20   EE      3
   18   21   SS     -3
   18   21   SE    -12
   18   21   ES      1
   18   21   EE     -1
   19   22   SS      9
   19   22   SE    -12
   19   22   ES    -11
   19   22   EE     -4
   20   22   SS     -8
   20   22   SE     -1
   20   22   ES     -3
   20   22   EE      4
   21   22   SS      9
   21   22   SE     12
   21   22   ES      5
   21   22   EE     -8
************************************************************************
